% Generated by MiniZinc 2.9.3
% Solver library: /home/icwmmarijnisse/Pumpkin/minizinc/lib
% Command line invocation: minizinc --compile --fzn ./instance.fzn --ozn ./instance.ozn --solver pumpkin ../../../../benchmarks/models/tsp/instances/tsp.mzn ../../../../benchmarks/models/tsp/instances/TSP_N5_2.dzn 

predicate pumpkin_circuit(array [int] of var int: x);
array [1..5] of int: X_INTRODUCED_23_ = [0,224,239,518,617];
array [1..5] of int: X_INTRODUCED_25_ = [224,0,28,575,204];
array [1..5] of int: X_INTRODUCED_27_ = [239,28,0,734,666];
array [1..5] of int: X_INTRODUCED_29_ = [518,575,734,0,719];
array [1..5] of int: X_INTRODUCED_31_ = [617,204,666,719,0];
array [1..6] of int: X_INTRODUCED_34_ = [1,-1,-1,-1,-1,-1];
var 1..5: X_INTRODUCED_16_;
var 1..5: X_INTRODUCED_17_;
var 1..5: X_INTRODUCED_18_;
var 1..5: X_INTRODUCED_19_;
var 1..5: X_INTRODUCED_20_;
var 0..3379: Objective:: output_var:: is_defined_var;
var 0..617: X_INTRODUCED_24_ ::var_is_introduced :: is_defined_var;
var 0..575: X_INTRODUCED_26_ ::var_is_introduced :: is_defined_var;
var 0..734: X_INTRODUCED_28_ ::var_is_introduced :: is_defined_var;
var 0..734: X_INTRODUCED_30_ ::var_is_introduced :: is_defined_var;
var 0..719: X_INTRODUCED_32_ ::var_is_introduced :: is_defined_var;
array [1..5] of var int: Successor:: output_array([1..5]) = [X_INTRODUCED_16_,X_INTRODUCED_17_,X_INTRODUCED_18_,X_INTRODUCED_19_,X_INTRODUCED_20_];
constraint pumpkin_circuit(Successor);
constraint array_int_element(X_INTRODUCED_16_,X_INTRODUCED_23_,X_INTRODUCED_24_):: defines_var(X_INTRODUCED_24_);
constraint array_int_element(X_INTRODUCED_17_,X_INTRODUCED_25_,X_INTRODUCED_26_):: defines_var(X_INTRODUCED_26_);
constraint array_int_element(X_INTRODUCED_18_,X_INTRODUCED_27_,X_INTRODUCED_28_):: defines_var(X_INTRODUCED_28_);
constraint array_int_element(X_INTRODUCED_19_,X_INTRODUCED_29_,X_INTRODUCED_30_):: defines_var(X_INTRODUCED_30_);
constraint array_int_element(X_INTRODUCED_20_,X_INTRODUCED_31_,X_INTRODUCED_32_):: defines_var(X_INTRODUCED_32_);
constraint int_lin_eq(X_INTRODUCED_34_,[Objective,X_INTRODUCED_24_,X_INTRODUCED_26_,X_INTRODUCED_28_,X_INTRODUCED_30_,X_INTRODUCED_32_],0):: defines_var(Objective);
solve  minimize Objective;
